Data path: /scratch/opt/lxu/CFLG/benchmarks/tree_A
Instance: treeA.700.70
Result path: /scratch/opt/lxu/CFLG/results/tree_A
Solver: Gurobi
Time limit: 7200
Formulation: LEFPAI
Cover: Small
julia --project=. src/main.jl /scratch/opt/lxu/CFLG/benchmarks/tree_A treeA.700.70 /scratch/opt/lxu/CFLG/results/tree_A Gurobi 7200 LEFPAI Small
The latest version of Julia in the `release` channel is 1.11.5+0.x64.linux.gnu. You currently have `1.11.4+0.x64.linux.gnu` installed. Run:

  juliaup update

in your terminal shell to install Julia 1.11.5+0.x64.linux.gnu and update the `release` channel to that version.
/scratch/opt/lxu/CFLG/benchmarks/tree_A Gurobi 7200.0 /scratch/opt/lxu/CFLG/results/tree_A treeA.700.70 LEFPAI Small
/scratch/opt/lxu/CFLG/benchmarks/tree_A/treeA.700.70

 read graph
data loaded


after absorb:441 700

max_piece:30
problem_graph/original graph: node: 441/700 edge: 510/769 dlt: 0.3733625734724527 break_avg_len: 2.2518887764730704 break_max_len: 11.129534603443886Vbar/V, Ebar/E(200, 441, 269, 510)
Set parameter TokenServer to value "solice01.zib.de"
Set parameter Threads to value 1
Set parameter OutputFlag to value 1
Gurobi Optimizer version 12.0.1 build v12.0.1rc0 (linux64 - "Debian GNU/Linux 12 (bookworm)")

CPU model: Intel(R) Xeon(R) Gold 5122 CPU @ 3.60GHz, instruction set [SSE2|AVX|AVX2|AVX512]
Thread count: 8 physical cores, 16 logical processors, using up to 1 threads

Non-default parameters:
Threads  1

Optimize a model with 719 rows, 1182 columns and 1970 nonzeros
Model fingerprint: 0x9f0a5a57
Coefficient statistics:
  Matrix range     [1e+00, 1e+00]
  Objective range  [1e+00, 1e+00]
  Bounds range     [1e+00, 1e+00]
  RHS range        [1e+00, 1e+00]
Presolve removed 719 rows and 1182 columns
Presolve time: 0.00s
Presolve: All rows and columns removed
Iteration    Objective       Primal Inf.    Dual Inf.      Time
       0    1.2500000e+02   0.000000e+00   0.000000e+00      0s

Solved in 0 iterations and 0.00 seconds (0.00 work units)
Optimal objective  1.250000000e+02

User-callback calls 35, time in user-callback 0.00 sec
elapsed CPU time: 1.462989 seconds
Set parameter TokenServer to value "solice01.zib.de"
Set parameter Threads to value 1
Set parameter OutputFlag to value 1
Set parameter MIPGap to value 0.0001
Set parameter MIPGapAbs to value 0.999998
Set parameter TimeLimit to value 7198.537011

 more cuts: false 0.3733625734724527 false
is_attach:trueformulation:LEFPAI0 394 0

 model loaded

Gurobi Optimizer version 12.0.1 build v12.0.1rc0 (linux64 - "Debian GNU/Linux 12 (bookworm)")

CPU model: Intel(R) Xeon(R) Gold 5122 CPU @ 3.60GHz, instruction set [SSE2|AVX|AVX2|AVX512]
Thread count: 8 physical cores, 16 logical processors, using up to 1 threads

Non-default parameters:
TimeLimit  7198.537011
MIPGapAbs  0.999998
Threads  1

Optimize a model with 3362 rows, 3637 columns and 7629 nonzeros
Model fingerprint: 0x68d6f60a
Model has 1411 simple general constraints
  1411 INDICATOR
Variable types: 1113 continuous, 2524 integer (2524 binary)
Coefficient statistics:
  Matrix range     [3e-03, 1e+01]
  Objective range  [1e+00, 1e+00]
  Bounds range     [3e-03, 1e+01]
  RHS range        [1e-06, 1e+01]
  GenCon rhs range [4e-03, 1e+01]
  GenCon coe range [1e+00, 1e+00]
Presolve removed 3362 rows and 3637 columns
Presolve time: 0.01s
Presolve: All rows and columns removed

Explored 0 nodes (0 simplex iterations) in 0.01 seconds (0.01 work units)
Thread count was 1 (of 16 available processors)

Solution count 1: 1010 

Optimal solution found (tolerance 1.00e-04)
Best objective 1.010000000000e+03, best bound 1.010000000000e+03, gap 0.0000%

User-callback calls 992, time in user-callback 0.00 sec

 sepatime0 0 0
1010.0Stat(MathOptInterface.OPTIMAL, 1010.0, 1010.0, 0.0, 0.0, 1.462989, 0.01271200180053711, 0, Main.CFLG.LEFPAI, "", #undef)
